
        $ From http://www.csplib.org/Problems/prob009/data/helmut.pdf
        $ Problem number 129
        $ Sequence length : 25
        language ESSENCE' 1.0
        letting sizemaster be 404
        letting sizes be sequence(4,7,10,11,12,13,16,18,20,23,25,28,29,32,47,62,70,88,93,96,101,114,127,189,215)
        